10
1 0 4
2 0 2
2 1 15
3 0 17
3 1 14
3 2 10
4 0 20
4 1 19
4 2 5
4 3 8
5 0 14
5 1 19
5 2 4
5 3 11
5 4 10
6 0 12
6 1 7
6 2 9
6 3 4
6 4 18
6 5 14
7 0 5
7 1 12
7 2 12
7 3 11
7 4 10
7 5 10
7 6 13
8 0 6
8 1 9
8 2 16
8 3 19
8 4 10
8 5 10
8 6 4
8 7 16
9 0 15
9 1 14
9 2 17
9 3 6
9 4 10
9 5 15
9 6 17
9 7 9
9 8 9
